190 300 193 200 196 172 196 185 156 200 151 151 190 176 180 162 186 171 163 151 179 192 160 164 154 189 191 151 175 193 163 198 183 155 171 152 151 166 161 158 166 162 184 180 162 188 166 198 158 179 173 162 170 157 176 200 170 167 150 196 184 163 167 191 194 189 193 169 179 153 151 169 190 186 199 151 173 164 173 156 193 170 168 188 152 194 187 172 185 187 192 193 175 159 157 193 172 200 161 175 177 163 195 191 199 167 166 171 182 163 177 199 184 195 160 186 163 197 182 172 158 174 190 157 157 197 200 153 197 160 178 198 173 172 189 196 190 179 192 196 193 168 168 176 188 179 186 175 175 167 171 157 191 160 164 198 157 163 150 178 199 153 200 171 175 188 192 189 167 183 158 184 175 177 159 162 180 169 161 179 186 183 187 151 193 150 173 174 189 174 176 187 